Version identifier: 12.10.0.0 | 2019-11-26 | 843d4de
CPXPARAM_WorkMem                                 28672
Tried aggregator 2 times.
MIP Presolve modified 42 coefficients.
Aggregator did 45 substitutions.
Reduced MIP has 199 rows, 240 columns, and 968 nonzeros.
Reduced MIP has 240 binaries, 0 generals, 0 SOSs, and 0 indicators.
Presolve time = 0,00 sec. (1,28 ticks)
Found incumbent of value 180,000000 after 0,00 sec. (1,94 ticks)
Probing time = 0,00 sec. (0,37 ticks)
Tried aggregator 1 time.
Detecting symmetries...
MIP Presolve eliminated 32 rows and 0 columns.
MIP Presolve added 64 rows and 0 columns.
Reduced MIP has 231 rows, 240 columns, and 1000 nonzeros.
Reduced MIP has 240 binaries, 0 generals, 0 SOSs, and 0 indicators.
Presolve time = 0,00 sec. (1,19 ticks)
Probing time = 0,00 sec. (0,36 ticks)
Clique table members: 683.
MIP emphasis: balance optimality and feasibility.
MIP search method: dynamic search.
Parallel mode: deterministic, using up to 16 threads.
Root relaxation solution time = 0,00 sec. (1,24 ticks)

        Nodes                                         Cuts/
   Node  Left     Objective  IInf  Best Integer    Best Bound    ItCnt     Gap

*     0+    0                          180,0000        0,0000           100,00%
*     0+    0                          102,0000        0,0000           100,00%
*     0+    0                           97,0000        0,0000           100,00%
      0     0       46,7833   176       97,0000       46,7833      124   51,77%
      0     0       47,1659   176       97,0000     Cuts: 157      164   51,38%
      0     0       47,8742   176       97,0000     Cuts: 157      280   50,65%
      0     0       48,4345   176       97,0000     Cuts: 157      313   50,07%
      0     0       48,5957   176       97,0000     Cuts: 105      341   49,90%
      0     0       48,7313   176       97,0000     Cuts: 125      381   49,76%
      0     0       48,8635   176       97,0000     Cuts: 132      417   49,63%
      0     0       48,9656   176       97,0000     Cuts: 151      469   49,52%
      0     0       49,0967   176       97,0000     Cuts: 147      530   49,38%
      0     0       49,2160   176       97,0000     Cuts: 121      577   49,26%
      0     0       49,3020   176       97,0000     Cuts: 141      638   49,17%
      0     0       49,4579   176       97,0000     Cuts: 124      729   49,01%
      0     0       49,5061   176       97,0000      Cuts: 98      790   48,96%
      0     0       49,6328   176       97,0000     Cuts: 135      868   48,83%
*     0+    0                           96,0000       49,6328            48,30%
      0     0       49,7220   176       96,0000     Cuts: 109      965   44,32%
      0     0       50,3878   176       96,0000     Cuts: 130     1132   44,32%
      0     0       50,7458   176       96,0000     Cuts: 157     1224   44,32%
      0     0       50,8482   176       96,0000     Cuts: 157     1275   44,32%
      0     2       50,8482   240       96,0000       53,4500     1275   44,32%
Elapsed time = 0,34 sec. (174,71 ticks, tree = 0,02 MB, solutions = 4)

Performing restart 1

Repeating presolve.
Tried aggregator 1 time.
Reduced MIP has 231 rows, 240 columns, and 1000 nonzeros.
Reduced MIP has 240 binaries, 0 generals, 0 SOSs, and 0 indicators.
Presolve time = 0,00 sec. (0,59 ticks)
Tried aggregator 1 time.
Reduced MIP has 231 rows, 240 columns, and 1000 nonzeros.
Reduced MIP has 240 binaries, 0 generals, 0 SOSs, and 0 indicators.
Presolve time = 0,00 sec. (0,82 ticks)
Represolve time = 0,02 sec. (8,92 ticks)
   4625     0       51,6438   240       96,0000      Cuts: 45   100475   17,61%
   4625     0       52,2073   240       96,0000      Cuts: 35   100621   17,61%
   4625     0       52,5441   240       96,0000      Cuts: 70   100740   17,61%
   4625     0       52,6943   240       96,0000      Cuts: 70   100865   17,61%
   4625     0       53,0302   240       96,0000      Cuts: 45   100987   17,61%
   4625     2       53,0302   240       96,0000       79,0978   100987   17,61%
   4669    25    infeasible             96,0000       79,0978   104281   17,61%
   6671  1244       87,9482    86       96,0000       79,0978   174559   17,61%
   9040  3010       80,5397   147       96,0000       79,0978   258655   17,61%

Performing restart 2

Repeating presolve.
Tried aggregator 1 time.
Reduced MIP has 231 rows, 240 columns, and 1000 nonzeros.
Reduced MIP has 240 binaries, 0 generals, 0 SOSs, and 0 indicators.
Presolve time = 0,00 sec. (0,59 ticks)
Tried aggregator 1 time.
Reduced MIP has 231 rows, 240 columns, and 1000 nonzeros.
Reduced MIP has 240 binaries, 0 generals, 0 SOSs, and 0 indicators.
Presolve time = 0,00 sec. (0,82 ticks)
Represolve time = 0,03 sec. (19,85 ticks)
  10598     0       54,6203   240       96,0000      Cuts: 22   355643   17,61%
  10598     0       55,1342   240       96,0000      Cuts: 31   355814   17,61%
  10598     0       55,5733   240       96,0000      Cuts: 81   355963   17,61%
  10598     0       55,6052   240       96,0000      Cuts: 42   356025   17,61%
  10598     0       55,6536   240       96,0000      Cuts: 41   356109   17,61%
  10598     0       55,6883   240       96,0000      Cuts: 47   356182   17,61%
  10598     0       55,7113   240       96,0000      Cuts: 33   356242   17,61%
  10598     2       55,7113   240       96,0000       79,0978   356242   17,61%
  13065  1380       88,2661   151       96,0000       79,0978   415243   17,61%
  15318  1947       89,8203   140       96,0000       84,7955   497564   11,67%
  18381   503        cutoff             96,0000       92,9630   569266    3,16%

Clique cuts applied:  51
Cover cuts applied:  325
Flow cuts applied:  3
Mixed integer rounding cuts applied:  142
Zero-half cuts applied:  64
Lift and project cuts applied:  24
Gomory fractional cuts applied:  22

Root node processing (before b&c):
  Real time             =    0,32 sec. (174,34 ticks)
Parallel b&c, 16 threads:
  Real time             =    3,66 sec. (2737,50 ticks)
  Sync time (average)   =    0,99 sec.
  Wait time (average)   =    0,02 sec.
                          ------------
Total (root+branch&cut) =    3,98 sec. (2911,85 ticks)
